220 8 1
28 31 28 31 28 31 28 31
25 20 33 46
0 0
2  4 1 400 3 400 5 400 7 400 4 2 378 4 378 6 378 8 378
2  4 1 400 3 400 5 400 7 400 4 2 378 4 378 6 378 8 378
2  4 1 400 3 400 5 400 7 400 4 2 378 4 378 6 378 8 378
2  4 1 400 3 400 5 400 7 400 4 2 378 4 378 6 378 8 378
2  4 1 400 3 400 5 400 7 400 4 2 378 4 378 6 378 8 378
2  4 1 400 3 400 5 400 7 400 4 2 378 4 378 6 378 8 378
2  4 1 400 3 400 5 400 7 400 4 2 378 4 378 6 378 8 378
2  4 1 400 3 400 5 400 7 400 4 2 378 4 378 6 378 8 378
2  4 1 400 3 400 5 400 7 400 4 2 378 4 378 6 378 8 378
2  4 1 400 3 400 5 400 7 400 4 2 378 4 378 6 378 8 378
2  4 1 400 3 400 5 400 7 400 4 2 378 4 378 6 378 8 378
2  4 1 400 3 400 5 400 7 400 4 2 378 4 378 6 378 8 378
2  4 1 400 3 400 5 400 7 400 4 2 378 4 378 6 378 8 378
2  4 1 400 3 400 5 400 7 400 4 2 378 4 378 6 378 8 378
2  4 1 400 3 400 5 400 7 400 4 2 378 4 378 6 378 8 378
2  4 1 400 3 400 5 400 7 400 4 2 378 4 378 6 378 8 378
2  4 1 400 3 400 5 400 7 400 4 2 378 4 378 6 378 8 378
2  4 1 400 3 400 5 400 7 400 4 2 378 4 378 6 378 8 378
2  4 1 400 3 400 5 400 7 400 4 2 378 4 378 6 378 8 378
2  4 1 400 3 400 5 400 7 400 4 2 378 4 378 6 378 8 378
2  4 1 400 3 400 5 400 7 400 4 2 378 4 378 6 378 8 378
2  4 1 400 3 400 5 400 7 400 4 2 378 4 378 6 378 8 378
2  4 1 400 3 400 5 400 7 400 4 2 378 4 378 6 378 8 378
2  4 1 400 3 400 5 400 7 400 4 2 378 4 378 6 378 8 378
2  4 1 400 3 400 5 400 7 400 4 2 378 4 378 6 378 8 378
2  4 1 400 3 400 5 400 7 400 4 2 378 4 378 6 378 8 378
2  4 1 400 3 400 5 400 7 400 4 2 378 4 378 6 378 8 378
2  4 1 400 3 400 5 400 7 400 4 2 378 4 378 6 378 8 378
2  4 1 400 3 400 5 400 7 400 4 2 378 4 378 6 378 8 378
2  4 1 400 3 400 5 400 7 400 4 2 378 4 378 6 378 8 378
2  4 1 400 3 400 5 400 7 400 4 2 378 4 378 6 378 8 378
2  4 1 400 3 400 5 400 7 400 4 2 378 4 378 6 378 8 378
2  4 1 400 3 400 5 400 7 400 4 2 378 4 378 6 378 8 378
2  4 1 400 3 400 5 400 7 400 4 2 378 4 378 6 378 8 378
2  4 1 400 3 400 5 400 7 400 4 2 378 4 378 6 378 8 378
2  4 1 400 3 400 5 400 7 400 4 2 378 4 378 6 378 8 378
2  4 1 400 3 400 5 400 7 400 4 2 378 4 378 6 378 8 378
2  4 1 400 3 400 5 400 7 400 4 2 378 4 378 6 378 8 378
2  4 1 400 3 400 5 400 7 400 4 2 378 4 378 6 378 8 378
2  4 1 400 3 400 5 400 7 400 4 2 378 4 378 6 378 8 378
2  4 1 400 3 400 5 400 7 400 4 2 378 4 378 6 378 8 378
2  4 1 400 3 400 5 400 7 400 4 2 378 4 378 6 378 8 378
2  4 1 400 3 400 5 400 7 400 4 2 378 4 378 6 378 8 378
2  4 1 400 3 400 5 400 7 400 4 2 378 4 378 6 378 8 378
2  4 1 400 3 400 5 400 7 400 4 2 378 4 378 6 378 8 378
2  4 1 400 3 400 5 400 7 400 4 2 378 4 378 6 378 8 378
2  4 1 400 3 400 5 400 7 400 4 2 378 4 378 6 378 8 378
2  4 1 400 3 400 5 400 7 400 4 2 378 4 378 6 378 8 378
2  4 1 400 3 400 5 400 7 400 4 2 378 4 378 6 378 8 378
2  4 1 400 3 400 5 400 7 400 4 2 378 4 378 6 378 8 378
2  4 1 400 3 400 5 400 7 400 4 2 378 4 378 6 378 8 378
2  4 1 400 3 400 5 400 7 400 4 2 378 4 378 6 378 8 378
2  4 1 400 3 400 5 400 7 400 4 2 378 4 378 6 378 8 378
2  4 1 400 3 400 5 400 7 400 4 2 378 4 378 6 378 8 378
2  4 1 400 3 400 5 400 7 400 4 2 378 4 378 6 378 8 378
2  4 1 400 3 400 5 400 7 400 4 2 378 4 378 6 378 8 378
2  4 1 400 3 400 5 400 7 400 4 2 378 4 378 6 378 8 378
2  4 1 400 3 400 5 400 7 400 4 2 378 4 378 6 378 8 378
2  4 1 400 3 400 5 400 7 400 4 2 378 4 378 6 378 8 378
2  4 1 400 3 400 5 400 7 400 4 2 378 4 378 6 378 8 378
2  4 1 400 3 400 5 400 7 400 4 2 378 4 378 6 378 8 378
2  4 1 400 3 400 5 400 7 400 4 2 378 4 378 6 378 8 378
2  4 1 400 3 400 5 400 7 400 4 2 378 4 378 6 378 8 378
2  4 1 400 3 400 5 400 7 400 4 2 378 4 378 6 378 8 378
2  4 1 400 3 400 5 400 7 400 4 2 378 4 378 6 378 8 378
2  4 1 400 3 400 5 400 7 400 4 2 378 4 378 6 378 8 378
2  4 1 400 3 400 5 400 7 400 4 2 378 4 378 6 378 8 378
2  4 1 400 3 400 5 400 7 400 4 2 378 4 378 6 378 8 378
2  4 1 400 3 400 5 400 7 400 4 2 378 4 378 6 378 8 378
2  4 1 400 3 400 5 400 7 400 4 2 378 4 378 6 378 8 378
2  4 1 400 3 400 5 400 7 400 4 2 378 4 378 6 378 8 378
2  4 1 400 3 400 5 400 7 400 4 2 378 4 378 6 378 8 378
2  4 1 400 3 400 5 400 7 400 4 2 378 4 378 6 378 8 378
2  4 1 400 3 400 5 400 7 400 4 2 378 4 378 6 378 8 378
2  4 1 400 3 400 5 400 7 400 4 2 378 4 378 6 378 8 378
2  4 1 400 3 400 5 400 7 400 4 2 378 4 378 6 378 8 378
2  4 1 400 3 400 5 400 7 400 4 2 378 4 378 6 378 8 378
2  4 1 400 3 400 5 400 7 400 4 2 378 4 378 6 378 8 378
2  4 1 400 3 400 5 400 7 400 4 2 378 4 378 6 378 8 378
2  4 1 400 3 400 5 400 7 400 4 2 378 4 378 6 378 8 378
2  4 1 400 3 400 5 400 7 400 4 2 378 4 378 6 378 8 378
2  4 1 400 3 400 5 400 7 400 4 2 378 4 378 6 378 8 378
2  4 1 400 3 400 5 400 7 400 4 2 378 4 378 6 378 8 378
2  4 1 400 3 400 5 400 7 400 4 2 378 4 378 6 378 8 378
2  4 1 400 3 400 5 400 7 400 4 2 378 4 378 6 378 8 378
2  4 1 400 3 400 5 400 7 400 4 2 378 4 378 6 378 8 378
2  4 1 400 3 400 5 400 7 400 4 2 378 4 378 6 378 8 378
2  4 1 400 3 400 5 400 7 400 4 2 378 4 378 6 378 8 378
2  4 1 400 3 400 5 400 7 400 4 2 378 4 378 6 378 8 378
2  4 1 400 3 400 5 400 7 400 4 2 378 4 378 6 378 8 378
2  4 1 400 3 400 5 400 7 400 4 2 378 4 378 6 378 8 378
2  4 1 400 3 400 5 400 7 400 4 2 378 4 378 6 378 8 378
2  4 1 400 3 400 5 400 7 400 4 2 378 4 378 6 378 8 378
2  4 1 400 3 400 5 400 7 400 4 2 378 4 378 6 378 8 378
2  4 1 400 3 400 5 400 7 400 4 2 378 4 378 6 378 8 378
2  4 1 400 3 400 5 400 7 400 4 2 378 4 378 6 378 8 378
2  4 1 400 3 400 5 400 7 400 4 2 378 4 378 6 378 8 378
2  4 1 400 3 400 5 400 7 400 4 2 378 4 378 6 378 8 378
2  4 1 400 3 400 5 400 7 400 4 2 378 4 378 6 378 8 378
2  4 1 400 3 400 5 400 7 400 4 2 378 4 378 6 378 8 378
2  4 1 400 3 400 5 400 7 400 4 2 378 4 378 6 378 8 378
2  4 1 400 3 400 5 400 7 400 4 2 378 4 378 6 378 8 378
2  4 1 400 3 400 5 400 7 400 4 2 378 4 378 6 378 8 378
2  4 1 400 3 400 5 400 7 400 4 2 378 4 378 6 378 8 378
2  4 1 400 3 400 5 400 7 400 4 2 378 4 378 6 378 8 378
2  4 1 400 3 400 5 400 7 400 4 2 378 4 378 6 378 8 378
2  4 1 400 3 400 5 400 7 400 4 2 378 4 378 6 378 8 378
2  4 1 400 3 400 5 400 7 400 4 2 378 4 378 6 378 8 378
2  4 1 400 3 400 5 400 7 400 4 2 378 4 378 6 378 8 378
2  4 1 400 3 400 5 400 7 400 4 2 378 4 378 6 378 8 378
2  4 1 400 3 400 5 400 7 400 4 2 378 4 378 6 378 8 378
2  4 1 400 3 400 5 400 7 400 4 2 378 4 378 6 378 8 378
2  4 1 400 3 400 5 400 7 400 4 2 378 4 378 6 378 8 378
2  4 1 400 3 400 5 400 7 400 4 2 378 4 378 6 378 8 378
2  4 1 400 3 400 5 400 7 400 4 2 378 4 378 6 378 8 378
2  4 1 400 3 400 5 400 7 400 4 2 378 4 378 6 378 8 378
2  4 1 400 3 400 5 400 7 400 4 2 378 4 378 6 378 8 378
2  4 1 400 3 400 5 400 7 400 4 2 378 4 378 6 378 8 378
2  4 1 400 3 400 5 400 7 400 4 2 378 4 378 6 378 8 378
2  4 1 400 3 400 5 400 7 400 4 2 378 4 378 6 378 8 378
2  4 1 400 3 400 5 400 7 400 4 2 378 4 378 6 378 8 378
2  4 1 400 3 400 5 400 7 400 4 2 378 4 378 6 378 8 378
2  4 1 400 3 400 5 400 7 400 4 2 378 4 378 6 378 8 378
2  4 1 400 3 400 5 400 7 400 4 2 378 4 378 6 378 8 378
2  4 1 400 3 400 5 400 7 400 4 2 378 4 378 6 378 8 378
2  4 1 400 3 400 5 400 7 400 4 2 378 4 378 6 378 8 378
2  4 1 400 3 400 5 400 7 400 4 2 378 4 378 6 378 8 378
2  4 1 400 3 400 5 400 7 400 4 2 378 4 378 6 378 8 378
2  4 1 400 3 400 5 400 7 400 4 2 378 4 378 6 378 8 378
2  4 1 400 3 400 5 400 7 400 4 2 378 4 378 6 378 8 378
2  4 1 400 3 400 5 400 7 400 4 2 378 4 378 6 378 8 378
2  4 1 400 3 400 5 400 7 400 4 2 378 4 378 6 378 8 378
2  4 1 400 3 400 5 400 7 400 4 2 378 4 378 6 378 8 378
2  4 1 400 3 400 5 400 7 400 4 2 378 4 378 6 378 8 378
2  4 1 400 3 400 5 400 7 400 4 2 378 4 378 6 378 8 378
2  4 1 400 3 400 5 400 7 400 4 2 378 4 378 6 378 8 378
2  4 1 400 3 400 5 400 7 400 4 2 378 4 378 6 378 8 378
2  4 1 400 3 400 5 400 7 400 4 2 378 4 378 6 378 8 378
2  4 1 400 3 400 5 400 7 400 4 2 378 4 378 6 378 8 378
2  4 1 400 3 400 5 400 7 400 4 2 378 4 378 6 378 8 378
2  4 1 400 3 400 5 400 7 400 4 2 378 4 378 6 378 8 378
2  4 1 400 3 400 5 400 7 400 4 2 378 4 378 6 378 8 378
2  4 1 400 3 400 5 400 7 400 4 2 378 4 378 6 378 8 378
2  4 1 400 3 400 5 400 7 400 4 2 378 4 378 6 378 8 378
2  4 1 400 3 400 5 400 7 400 4 2 378 4 378 6 378 8 378
2  4 1 400 3 400 5 400 7 400 4 2 378 4 378 6 378 8 378
2  4 1 400 3 400 5 400 7 400 4 2 378 4 378 6 378 8 378
2  4 1 400 3 400 5 400 7 400 4 2 378 4 378 6 378 8 378
2  4 1 400 3 400 5 400 7 400 4 2 378 4 378 6 378 8 378
2  4 1 400 3 400 5 400 7 400 4 2 378 4 378 6 378 8 378
2  4 1 400 3 400 5 400 7 400 4 2 378 4 378 6 378 8 378
2  4 1 400 3 400 5 400 7 400 4 2 378 4 378 6 378 8 378
2  4 1 400 3 400 5 400 7 400 4 2 378 4 378 6 378 8 378
2  4 1 400 3 400 5 400 7 400 4 2 378 4 378 6 378 8 378
2  4 1 400 3 400 5 400 7 400 4 2 378 4 378 6 378 8 378
2  4 1 400 3 400 5 400 7 400 4 2 378 4 378 6 378 8 378
2  4 1 400 3 400 5 400 7 400 4 2 378 4 378 6 378 8 378
2  4 1 400 3 400 5 400 7 400 4 2 378 4 378 6 378 8 378
2  4 1 400 3 400 5 400 7 400 4 2 378 4 378 6 378 8 378
2  4 1 400 3 400 5 400 7 400 4 2 378 4 378 6 378 8 378
2  4 1 400 3 400 5 400 7 400 4 2 378 4 378 6 378 8 378
2  4 1 400 3 400 5 400 7 400 4 2 378 4 378 6 378 8 378
2  4 1 400 3 400 5 400 7 400 4 2 378 4 378 6 378 8 378
2  4 1 400 3 400 5 400 7 400 4 2 378 4 378 6 378 8 378
2  4 1 400 3 400 5 400 7 400 4 2 378 4 378 6 378 8 378
2  4 1 400 3 400 5 400 7 400 4 2 378 4 378 6 378 8 378
2  4 1 400 3 400 5 400 7 400 4 2 378 4 378 6 378 8 378
2  4 1 400 3 400 5 400 7 400 4 2 378 4 378 6 378 8 378
2  4 1 400 3 400 5 400 7 400 4 2 378 4 378 6 378 8 378
2  4 1 400 3 400 5 400 7 400 4 2 378 4 378 6 378 8 378
2  4 1 400 3 400 5 400 7 400 4 2 378 4 378 6 378 8 378
2  4 1 400 3 400 5 400 7 400 4 2 378 4 378 6 378 8 378
2  4 1 400 3 400 5 400 7 400 4 2 378 4 378 6 378 8 378
2  4 1 400 3 400 5 400 7 400 4 2 378 4 378 6 378 8 378
2  4 1 400 3 400 5 400 7 400 4 2 378 4 378 6 378 8 378
2  4 1 400 3 400 5 400 7 400 4 2 378 4 378 6 378 8 378
2  4 1 400 3 400 5 400 7 400 4 2 378 4 378 6 378 8 378
2  4 1 400 3 400 5 400 7 400 4 2 378 4 378 6 378 8 378
2  4 1 400 3 400 5 400 7 400 4 2 378 4 378 6 378 8 378
2  4 1 400 3 400 5 400 7 400 4 2 378 4 378 6 378 8 378
2  4 1 400 3 400 5 400 7 400 4 2 378 4 378 6 378 8 378
2  4 1 400 3 400 5 400 7 400 4 2 378 4 378 6 378 8 378
2  4 1 400 3 400 5 400 7 400 4 2 378 4 378 6 378 8 378
2  4 1 400 3 400 5 400 7 400 4 2 378 4 378 6 378 8 378
2  4 1 400 3 400 5 400 7 400 4 2 378 4 378 6 378 8 378
2  4 1 400 3 400 5 400 7 400 4 2 378 4 378 6 378 8 378
2  4 1 400 3 400 5 400 7 400 4 2 378 4 378 6 378 8 378
2  4 1 400 3 400 5 400 7 400 4 2 378 4 378 6 378 8 378
2  4 1 400 3 400 5 400 7 400 4 2 378 4 378 6 378 8 378
2  4 1 400 3 400 5 400 7 400 4 2 378 4 378 6 378 8 378
2  4 1 400 3 400 5 400 7 400 4 2 378 4 378 6 378 8 378
2  4 1 400 3 400 5 400 7 400 4 2 378 4 378 6 378 8 378
2  4 1 400 3 400 5 400 7 400 4 2 378 4 378 6 378 8 378
2  4 1 400 3 400 5 400 7 400 4 2 378 4 378 6 378 8 378
2  4 1 400 3 400 5 400 7 400 4 2 378 4 378 6 378 8 378
2  4 1 400 3 400 5 400 7 400 4 2 378 4 378 6 378 8 378
2  4 1 400 3 400 5 400 7 400 4 2 378 4 378 6 378 8 378
2  4 1 400 3 400 5 400 7 400 4 2 378 4 378 6 378 8 378
2  4 1 400 3 400 5 400 7 400 4 2 378 4 378 6 378 8 378
2  4 1 400 3 400 5 400 7 400 4 2 378 4 378 6 378 8 378
2  4 1 400 3 400 5 400 7 400 4 2 378 4 378 6 378 8 378
2  4 1 400 3 400 5 400 7 400 4 2 378 4 378 6 378 8 378
2  4 1 400 3 400 5 400 7 400 4 2 378 4 378 6 378 8 378
2  4 1 400 3 400 5 400 7 400 4 2 378 4 378 6 378 8 378
2  4 1 400 3 400 5 400 7 400 4 2 378 4 378 6 378 8 378
2  4 1 400 3 400 5 400 7 400 4 2 378 4 378 6 378 8 378
2  4 1 400 3 400 5 400 7 400 4 2 378 4 378 6 378 8 378
2  4 1 400 3 400 5 400 7 400 4 2 378 4 378 6 378 8 378
2  4 1 400 3 400 5 400 7 400 4 2 378 4 378 6 378 8 378
2  4 1 400 3 400 5 400 7 400 4 2 378 4 378 6 378 8 378